language ESSENCE' 1.0
letting vertices=100
letting colours=18
letting edge_count=166
letting edges=[
[1, 3],
[1, 4],
[1, 9],
[1, 23],
[2, 6],
[2, 8],
[2, 11],
[2, 32],
[3, 4],
[3, 5],
[4, 21],
[4, 22],
[5, 7],
[5, 45],
[5, 46],
[6, 18],
[6, 19],
[6, 44],
[7, 12],
[7, 13],
[7, 17],
[8, 9],
[8, 10],
[9, 10],
[10, 24],
[10, 25],
[11, 15],
[11, 41],
[11, 62],
[12, 13],
[12, 26],
[13, 64],
[13, 65],
[14, 15],
[14, 16],
[14, 53],
[14, 59],
[15, 16],
[16, 43],
[16, 47],
[17, 19],
[17, 30],
[17, 31],
[18, 29],
[18, 50],
[19, 51],
[19, 52],
[20, 21],
[20, 22],
[20, 33],
[20, 34],
[21, 22],
[23, 24],
[23, 25],
[24, 25],
[26, 27],
[26, 28],
[27, 28],
[27, 54],
[27, 55],
[28, 36],
[28, 37],
[29, 30],
[29, 31],
[30, 31],
[32, 33],
[32, 34],
[33, 34],
[35, 36],
[35, 37],
[35, 60],
[35, 61],
[36, 71],
[37, 39],
[37, 40],
[38, 39],
[38, 40],
[38, 73],
[38, 95],
[39, 40],
[41, 42],
[41, 78],
[41, 83],
[42, 43],
[42, 48],
[42, 49],
[43, 77],
[44, 46],
[44, 87],
[44, 88],
[45, 46],
[45, 86],
[47, 48],
[47, 57],
[47, 58],
[48, 49],
[49, 99],
[49, 100],
[50, 52],
[50, 93],
[50, 94],
[51, 52],
[51, 92],
[53, 54],
[53, 55],
[54, 55],
[56, 58],
[56, 69],
[56, 70],
[56, 98],
[57, 58],
[57, 68],
[59, 60],
[59, 61],
[60, 75],
[60, 76],
[61, 74],
[62, 63],
[62, 64],
[63, 64],
[63, 66],
[63, 67],
[65, 66],
[65, 67],
[66, 67],
[68, 69],
[68, 70],
[69, 70],
[71, 72],
[71, 73],
[72, 73],
[72, 96],
[72, 97],
[74, 75],
[74, 76],
[75, 76],
[77, 78],
[77, 79],
[78, 90],
[78, 91],
[79, 81],
[79, 82],
[79, 89],
[80, 81],
[80, 82],
[80, 84],
[80, 85],
[81, 82],
[83, 84],
[83, 85],
[84, 85],
[86, 87],
[86, 88],
[87, 88],
[89, 90],
[89, 91],
[90, 91],
[92, 93],
[92, 94],
[93, 94],
[95, 96],
[95, 97],
[96, 97],
[98, 99],
[98, 100],
[99, 100],
]
